NAME: Randomtest10
TYPE: TSP
COMMENT: Generated by TSP Project Generator
DIMENSION: 10
EDGE_WEIGHT_TYPE: EUC_2D
NODE_COORD_SECTION
 1 136.0000 812.0000
 2 211.0000 55.0000
 3 239.0000 559.0000
 4 349.0000 281.0000
 5 359.0000 699.0000
 6 416.0000 18.0000
 7 443.0000 108.0000
 8 545.0000 915.0000
 9 704.0000 66.0000
 10 852.0000 450.0000
EOF
